<instance format="XCSP3" type="CSP">
<variables>
<array id="u0" size="[6]"> 0..9 </array>
<array id="id0" size="[6]"> 0..41 </array>
<array id="u1" size="[6]"> 0..9 </array>
<array id="id1" size="[6]"> 0..41 </array>
<array id="u2" size="[6]"> 0..9 </array>
<array id="id2" size="[6]"> 0..41 </array>
<array id="u3" size="[6]"> 0..9 </array>
<array id="id3" size="[6]"> 0..41 </array>
<array id="u4" size="[6]"> 0..9 </array>
<array id="id4" size="[6]"> 0..41 </array>
<array id="u5" size="[6]"> 0..9 </array>
<array id="id5" size="[6]"> 0..41 </array>
<array id="u6" size="[6]"> 0..9 </array>
<array id="id6" size="[6]"> 0..41 </array>
<array id="d6" size="[6]"> 0..9 </array>
<array id="l0" size="[7]"> 0..9 </array>
<array id="l1" size="[7]"> 0..9 </array>
<array id="l2" size="[7]"> 0..9 </array>
<array id="l3" size="[7]"> 0..9 </array>
<array id="l4" size="[7]"> 0..9 </array>
<array id="l5" size="[7]"> 0..9 </array>
<array id="r5" size="[7]"> 0..9 </array>
</variables>
<constraints>
<allDifferent> id0[] id1[] id2[] id3[] id4[] id5[] id6[] </allDifferent>
<group>
<extension>
<list> %0 %1 %2 %3 %4 </list>
<supports> (0,0,0,1,1)(0,0,1,1,0)(0,1,0,0,1)(0,1,1,0,0)(1,0,0,1,2)(1,0,1,2,0)(1,1,2,0,0)(1,2,0,0,1)(2,0,0,2,1)(2,0,2,1,0)(2,1,0,0,2)(2,2,1,0,0)(3,0,0,3,3)(3,0,3,3,0)(3,3,0,0,3)(3,3,3,0,0)(4,0,1,4,1)(4,1,0,1,4)(4,1,4,1,0)(4,4,1,0,1)(5,0,1,4,3)(5,1,4,3,0)(5,3,0,1,4)(5,4,3,0,1)(6,0,1,6,3)(6,1,6,3,0)(6,3,0,1,6)(6,6,3,0,1)(7,0,1,8,1)(7,1,0,1,8)(7,1,8,1,0)(7,8,1,0,1)(8,0,1,9,1)(8,1,0,1,9)(8,1,9,1,0)(8,9,1,0,1)(9,0,1,9,2)(9,1,9,2,0)(9,2,0,1,9)(9,9,2,0,1)(10,0,2,5,1)(10,1,0,2,5)(10,2,5,1,0)(10,5,1,0,2)(11,0,2,5,2)(11,2,0,2,5)(11,2,5,2,0)(11,5,2,0,2)(12,0,2,5,3)(12,2,5,3,0)(12,3,0,2,5)(12,5,3,0,2)(13,0,2,8,1)(13,1,0,2,8)(13,2,8,1,0)(13,8,1,0,2)(14,0,2,8,2)(14,2,0,2,8)(14,2,8,2,0)(14,8,2,0,2)(15,0,2,8,3)(15,2,8,3,0)(15,3,0,2,8)(15,8,3,0,2)(16,0,3,4,2)(16,2,0,3,4)(16,3,4,2,0)(16,4,2,0,3)(17,0,3,4,3)(17,3,0,3,4)(17,3,4,3,0)(17,4,3,0,3)(18,0,3,6,1)(18,1,0,3,6)(18,3,6,1,0)(18,6,1,0,3)(19,0,3,6,3)(19,3,0,3,6)(19,3,6,3,0)(19,6,3,0,3)(20,0,3,7,2)(20,2,0,3,7)(20,3,7,2,0)(20,7,2,0,3)(21,0,3,9,2)(21,2,0,3,9)(21,3,9,2,0)(21,9,2,0,3)(22,4,4,4,8)(22,4,4,8,4)(22,4,8,4,4)(22,8,4,4,4)(23,4,4,6,6)(23,4,6,6,4)(23,6,4,4,6)(23,6,6,4,4)(24,4,4,7,8)(24,4,7,8,4)(24,7,8,4,4)(24,8,4,4,7)(25,4,5,5,7)(25,5,5,7,4)(25,5,7,4,5)(25,7,4,5,5)(26,4,5,9,5)(26,5,4,5,9)(26,5,9,5,4)(26,9,5,4,5)(27,4,5,9,7)(27,5,9,7,4)(27,7,4,5,9)(27,9,7,4,5)(28,4,6,4,9)(28,4,9,4,6)(28,6,4,9,4)(28,9,4,6,4)(29,4,6,5,6)(29,5,6,4,6)(29,6,4,6,5)(29,6,5,6,4)(30,4,6,8,8)(30,6,8,8,4)(30,8,4,6,8)(30,8,8,4,6)(31,5,6,5,9)(31,5,9,5,6)(31,6,5,9,5)(31,9,5,6,5)(32,5,6,9,8)(32,6,9,8,5)(32,8,5,6,9)(32,9,8,5,6)(33,5,7,7,6)(33,6,5,7,7)(33,7,6,5,7)(33,7,7,6,5)(34,5,7,9,9)(34,7,9,9,5)(34,9,5,7,9)(34,9,9,5,7)(35,5,8,7,9)(35,7,9,5,8)(35,8,7,9,5)(35,9,5,8,7)(36,5,9,7,6)(36,6,5,9,7)(36,7,6,5,9)(36,9,7,6,5)(37,6,7,8,7)(37,7,6,7,8)(37,7,8,7,6)(37,8,7,6,7)(38,6,7,9,8)(38,7,9,8,6)(38,8,6,7,9)(38,9,8,6,7)(39,6,9,7,7)(39,7,6,9,7)(39,7,7,6,9)(39,9,7,7,6)(40,7,8,8,9)(40,8,8,9,7)(40,8,9,7,8)(40,9,7,8,8)(41,7,8,9,8)(41,8,7,8,9)(41,8,9,8,7)(41,9,8,7,8) </supports>
</extension>
<args> id0[0] u0[0] l1[0] u1[0] l0[0] </args>
<args> id0[1] u0[1] l2[0] u1[1] l1[0] </args>
<args> id0[2] u0[2] l3[0] u1[2] l2[0] </args>
<args> id0[3] u0[3] l4[0] u1[3] l3[0] </args>
<args> id0[4] u0[4] l5[0] u1[4] l4[0] </args>
<args> id0[5] u0[5] r5[0] u1[5] l5[0] </args>
<args> id1[0] u1[0] l1[1] u2[0] l0[1] </args>
<args> id1[1] u1[1] l2[1] u2[1] l1[1] </args>
<args> id1[2] u1[2] l3[1] u2[2] l2[1] </args>
<args> id1[3] u1[3] l4[1] u2[3] l3[1] </args>
<args> id1[4] u1[4] l5[1] u2[4] l4[1] </args>
<args> id1[5] u1[5] r5[1] u2[5] l5[1] </args>
<args> id2[0] u2[0] l1[2] u3[0] l0[2] </args>
<args> id2[1] u2[1] l2[2] u3[1] l1[2] </args>
<args> id2[2] u2[2] l3[2] u3[2] l2[2] </args>
<args> id2[3] u2[3] l4[2] u3[3] l3[2] </args>
<args> id2[4] u2[4] l5[2] u3[4] l4[2] </args>
<args> id2[5] u2[5] r5[2] u3[5] l5[2] </args>
<args> id3[0] u3[0] l1[3] u4[0] l0[3] </args>
<args> id3[1] u3[1] l2[3] u4[1] l1[3] </args>
<args> id3[2] u3[2] l3[3] u4[2] l2[3] </args>
<args> id3[3] u3[3] l4[3] u4[3] l3[3] </args>
<args> id3[4] u3[4] l5[3] u4[4] l4[3] </args>
<args> id3[5] u3[5] r5[3] u4[5] l5[3] </args>
<args> id4[0] u4[0] l1[4] u5[0] l0[4] </args>
<args> id4[1] u4[1] l2[4] u5[1] l1[4] </args>
<args> id4[2] u4[2] l3[4] u5[2] l2[4] </args>
<args> id4[3] u4[3] l4[4] u5[3] l3[4] </args>
<args> id4[4] u4[4] l5[4] u5[4] l4[4] </args>
<args> id4[5] u4[5] r5[4] u5[5] l5[4] </args>
<args> id5[0] u5[0] l1[5] u6[0] l0[5] </args>
<args> id5[1] u5[1] l2[5] u6[1] l1[5] </args>
<args> id5[2] u5[2] l3[5] u6[2] l2[5] </args>
<args> id5[3] u5[3] l4[5] u6[3] l3[5] </args>
<args> id5[4] u5[4] l5[5] u6[4] l4[5] </args>
<args> id5[5] u5[5] r5[5] u6[5] l5[5] </args>
<args> id6[0] u6[0] l1[6] d6[0] l0[6] </args>
<args> id6[1] u6[1] l2[6] d6[1] l1[6] </args>
<args> id6[2] u6[2] l3[6] d6[2] l2[6] </args>
<args> id6[3] u6[3] l4[6] d6[3] l3[6] </args>
<args> id6[4] u6[4] l5[6] d6[4] l4[6] </args>
<args> id6[5] u6[5] r5[6] d6[5] l5[6] </args>
</group>
<group>
<intension> eq(%0,%1) </intension>
<args> l0[0] 0 </args>
<args> l0[1] 0 </args>
<args> l0[2] 0 </args>
<args> l0[3] 0 </args>
<args> l0[4] 0 </args>
<args> l0[5] 0 </args>
<args> l0[6] 0 </args>
</group>
<group>
<intension> eq(%0,%1) </intension>
<args> r5[0] 0 </args>
<args> r5[1] 0 </args>
<args> r5[2] 0 </args>
<args> r5[3] 0 </args>
<args> r5[4] 0 </args>
<args> r5[5] 0 </args>
<args> r5[6] 0 </args>
</group>
<group>
<intension> eq(%0,%1) </intension>
<args> u0[0] 0 </args>
<args> u0[1] 0 </args>
<args> u0[2] 0 </args>
<args> u0[3] 0 </args>
<args> u0[4] 0 </args>
<args> u0[5] 0 </args>
</group>
<group>
<intension> eq(%0,%1) </intension>
<args> d6[0] 0 </args>
<args> d6[1] 0 </args>
<args> d6[2] 0 </args>
<args> d6[3] 0 </args>
<args> d6[4] 0 </args>
<args> d6[5] 0 </args>
</group>
</constraints>
</instance>
